NAME : zqloutput/eax-hard-simple-rescaleandround/50-5.tsp
TYPE : TSP
DIMENSION : 50
EDGE_WEIGHT_TYPE : EUC_2D
NODE_COORD_SECTION
1 891043 275033
2 659410 425477
3 374797 272303
4 780142 789646
5 125004 445308
6 374408 908833
7 591801 581774
8 317624 625425
9 182319 863395
10 69958 417702
11 123297 900502
12 247463 451609
13 945123 541074
14 41801 549895
15 291064 263568
16 190616 97299
17 812993 451404
18 991503 59697
19 524772 965010
20 31056 299326
21 392449 278791
22 216810 577207
23 231977 966881
24 777976 4046
25 362376 238681
26 822760 856907
27 342771 90190
28 173402 725040
29 91440 178276
30 153435 293473
31 673919 447040
32 337124 402395
33 671350 673104
34 386192 391333
35 302169 30272
36 616101 411151
37 657018 504642
38 138133 618322
39 715112 663673
40 531336 338974
41 231147 642265
42 922938 270719
43 648300 811725
44 272474 215236
45 803053 135352
46 478763 796926
47 715702 294972
48 879710 892945
49 709965 555982
50 585783 741838
EOF
